Route #1: 31 20 6 33
Route #2: 46 40 26 10 29 44 30 28
Route #3: 9 17 41 24 11 5 3
Route #4: 39 14 13 52 34 21 25
Route #5: 22 48 42 23 19 15 32 16 12 7
Route #6: 51 27 8 18 38 35
Route #7: 1 4 2 37 49 36 50 43 45 47
cost 1047
